output/sample02.lp
Minimize
 obj: 1 x_12_1 + 1 x_11_1 + 2 x_15_2 + 1 x_10_1 + 2 x_14_2 + 3 x_16_3 + 4 x_8_4 + 1 x_9_1 + 2 x_9_2 + 2 x_7_2 + 3 x_7_3 + 4 x_7_4 + 2 x_13_2 + 3 x_13_3 + 3 x_6_3 + 4 x_6_4
Subject To
 c1: x_12_1 = 1
 c2: x_11_1 = 1
 c3: x_15_2 = 1
 c4: x_10_1 = 1
 c5: x_14_2 = 1
 c6: x_16_3 = 1
 c7: x_8_4 = 1
 c8: x_9_1 + x_9_2 = 1
 c9: x_7_2 + x_7_3 + x_7_4 = 1
 c10: x_13_2 + x_13_3 = 1
 c11: x_6_3 + x_6_4 = 1
 c12: 2 x_13_2 + 3 x_13_3 - 1 x_10_1 >= 1
 c13: 2 x_13_2 + 3 x_13_3 - 1 x_11_1 >= 1
 c14: 2 x_13_2 + 3 x_13_3 - 1 x_9_1 - 2 x_9_2 >= 1
 c15: 2 x_7_2 + 3 x_7_3 + 4 x_7_4 - 1 x_9_1 - 2 x_9_2 >= 1
 c16: 3 x_6_3 + 4 x_6_4 - 1 x_10_1 >= 1
 c17: 3 x_6_3 + 4 x_6_4 - 2 x_13_2 - 3 x_13_3 >= 1
 c18: x_10_1 <= 2
 c19: x_15_2 + x_14_2 <= 2
 c20: x_16_3 + x_6_3 <= 2
 c21: x_6_4 <= 2
 c22: x_12_1 + x_9_1 <= 1
 c23: x_9_2 + x_13_2 <= 1
 c24: x_13_3 <= 1
 c25: x_11_1 <= 1
 c26: x_7_2 <= 1
 c27: x_7_3 <= 1
 c28: x_8_4 + x_7_4 <= 1
Binary
 x_12_1
 x_11_1
 x_15_2
 x_10_1
 x_14_2
 x_16_3
 x_8_4
 x_9_1
 x_9_2
 x_7_2
 x_7_3
 x_7_4
 x_13_2
 x_13_3
 x_6_3
 x_6_4
End
