sample02.sol
# Solution for model obj
# Objective value = 26
x_12_1 1
x_11_1 1
x_15_2 1
x_10_1 1
x_14_2 1
x_16_3 1
x_8_4 1
x_9_1 0
x_9_2 1
x_7_2 0
x_7_3 1
x_7_4 0
x_13_2 0
x_13_3 1
x_6_3 0
x_6_4 1
